n_nodes = 607;
M = 6701;
n_domains = 18;
domain_link_weights = [|0,6701,6701,358,6701,6701,6701,6701,6701,6701,6701,6701,6701,6701,6701,6701,6701,6701|6701,0,6701,6701,6701,479,344,264,6701,6701,6701,6701,6701,6701,6701,6701,6701,6701|6701,6701,0,6701,6701,6701,6701,6701,6701,972,6701,6701,6701,6701,1788,6701,6701,6701|6701,6701,6701,0,6701,6701,6701,6701,6701,6701,6701,6701,6701,6701,6701,6701,6701,6701|6701,6701,6701,6701,0,364,358,173,6701,6701,6701,6701,6701,6701,6701,6701,6701,6223|6701,6701,6701,6701,6701,0,6701,6701,6701,6701,6701,6701,6701,6701,6701,6701,6701,6701|6701,6701,6701,6701,6701,6701,0,6701,5585,6701,6701,6701,6701,6701,6701,6701,6701,6701|6701,6701,6701,6701,6701,6701,6701,0,6701,6701,6701,6701,6701,6701,6701,6701,6701,6701|6701,6701,6701,6701,6701,6701,6701,6701,0,6701,6701,6701,6701,6701,6701,1148,556,350|6701,6701,6701,6701,6701,6701,6701,6701,6701,0,6701,6701,6701,2562,6701,943,6701,852|6701,6701,6701,6701,6701,6701,6701,6701,6701,6701,0,1141,6701,6701,6701,2795,6701,6701|6701,6701,6701,6701,6701,6701,6701,6701,6701,6701,6701,0,492,6701,6701,2963,6701,3855|6701,6701,6701,6701,6701,6701,6701,6701,6701,6701,6701,6701,0,575,1995,2807,6701,6701|6701,6701,6701,6701,6701,6701,6701,6701,6701,6701,6701,6701,6701,0,1425,6701,6701,6701|6701,6701,6701,6701,6701,6701,6701,6701,6701,6701,6701,6701,6701,6701,0,1291,6701,1872|6701,6701,6701,6701,6701,6701,6701,6701,6701,6701,6701,6701,6701,6701,6701,0,704,916|6701,6701,6701,6701,6701,6701,6701,6701,6701,6701,6701,6701,6701,6701,6701,6701,0,6701|6701,6701,6701,6701,6701,6701,6701,6701,6701,6701,6701,6701,6701,6701,6701,6701,6701,0|];
num_node_links = 1209;
node_links = [|1,3|1,4|2,6|2,7|2,8|3,10|3,15|5,6|5,7|5,8|5,18|7,9|9,16|9,17|9,18|10,14|10,16|10,18|11,12|11,16|12,13|12,16|12,18|13,14|13,15|13,16|14,15|15,16|15,18|16,17|16,18|1,19|19,1|1,57|57,1|1,75|75,1|1,78|78,1|1,80|80,1|1,105|105,1|1,124|124,1|1,129|129,1|1,145|145,1|1,201|201,1|1,202|202,1|1,213|213,1|1,235|235,1|1,267|267,1|1,280|280,1|1,287|287,1|1,319|319,1|1,333|333,1|1,360|360,1|1,403|403,1|1,408|408,1|1,418|418,1|1,425|425,1|1,459|459,1|1,472|472,1|1,484|484,1|1,521|521,1|1,540|540,1|1,542|542,1|1,560|560,1|1,568|568,1|1,573|573,1|1,583|583,1|2,20|20,2|2,44|44,2|2,49|49,2|2,62|62,2|2,71|71,2|2,76|76,2|2,92|92,2|2,172|172,2|2,185|185,2|2,223|223,2|2,232|232,2|2,238|238,2|2,241|241,2|2,249|249,2|2,251|251,2|2,252|252,2|2,259|259,2|2,291|291,2|2,309|309,2|2,335|335,2|2,336|336,2|2,342|342,2|2,359|359,2|2,375|375,2|2,391|391,2|2,406|406,2|2,411|411,2|2,447|447,2|2,494|494,2|2,511|511,2|2,563|563,2|2,565|565,2|2,571|571,2|3,21|21,3|3,53|53,3|3,64|64,3|3,84|84,3|3,94|94,3|3,104|104,3|3,112|112,3|3,118|118,3|3,125|125,3|3,163|163,3|3,175|175,3|3,186|186,3|3,198|198,3|3,239|239,3|3,245|245,3|3,250|250,3|3,278|278,3|3,292|292,3|3,327|327,3|3,380|380,3|3,383|383,3|3,399|399,3|3,428|428,3|3,430|430,3|3,455|455,3|3,477|477,3|3,490|490,3|3,517|517,3|3,523|523,3|3,547|547,3|3,564|564,3|3,578|578,3|3,586|586,3|4,22|22,4|4,41|41,4|4,63|63,4|4,72|72,4|4,137|137,4|4,165|165,4|4,174|174,4|4,176|176,4|4,204|204,4|4,243|243,4|4,255|255,4|4,270|270,4|4,282|282,4|4,285|285,4|4,324|324,4|4,339|339,4|4,348|348,4|4,365|365,4|4,412|412,4|4,423|423,4|4,439|439,4|4,460|460,4|4,467|467,4|4,469|469,4|4,478|478,4|4,497|497,4|4,500|500,4|4,525|525,4|4,543|543,4|4,550|550,4|4,584|584,4|4,587|587,4|4,588|588,4|5,23|23,5|5,37|37,5|5,40|40,5|5,43|43,5|5,48|48,5|5,65|65,5|5,70|70,5|5,73|73,5|5,86|86,5|5,98|98,5|5,108|108,5|5,119|119,5|5,133|133,5|5,143|143,5|5,164|164,5|5,179|179,5|5,206|206,5|5,237|237,5|5,247|247,5|5,265|265,5|5,266|266,5|5,281|281,5|5,289|289,5|5,302|302,5|5,326|326,5|5,361|361,5|5,501|501,5|5,510|510,5|5,532|532,5|5,534|534,5|5,539|539,5|5,605|605,5|6,24|24,6|6,39|39,6|6,88|88,6|6,103|103,6|6,115|115,6|6,116|116,6|6,154|154,6|6,166|166,6|6,189|189,6|6,207|207,6|6,208|208,6|6,215|215,6|6,246|246,6|6,253|253,6|6,286|286,6|6,334|334,6|6,347|347,6|6,357|357,6|6,367|367,6|6,369|369,6|6,389|389,6|6,410|410,6|6,426|426,6|6,431|431,6|6,438|438,6|6,479|479,6|6,499|499,6|6,506|506,6|6,522|522,6|6,527|527,6|6,528|528,6|6,579|579,6|6,604|604,6|7,25|25,7|7,45|45,7|7,59|59,7|7,61|61,7|7,87|87,7|7,109|109,7|7,126|126,7|7,132|132,7|7,135|135,7|7,139|139,7|7,158|158,7|7,171|171,7|7,182|182,7|7,269|269,7|7,303|303,7|7,356|356,7|7,363|363,7|7,405|405,7|7,407|407,7|7,424|424,7|7,434|434,7|7,437|437,7|7,445|445,7|7,449|449,7|7,462|462,7|7,518|518,7|7,526|526,7|7,556|556,7|7,561|561,7|7,575|575,7|7,593|593,7|7,597|597,7|7,599|599,7|8,26|26,8|8,54|54,8|8,56|56,8|8,67|67,8|8,89|89,8|8,120|120,8|8,134|134,8|8,151|151,8|8,170|170,8|8,188|188,8|8,190|190,8|8,197|197,8|8,200|200,8|8,205|205,8|8,211|211,8|8,234|234,8|8,268|268,8|8,295|295,8|8,341|341,8|8,346|346,8|8,366|366,8|8,421|421,8|8,436|436,8|8,444|444,8|8,454|454,8|8,482|482,8|8,485|485,8|8,489|489,8|8,538|538,8|8,544|544,8|8,545|545,8|8,582|582,8|8,591|591,8|9,27|27,9|9,85|85,9|9,91|91,9|9,130|130,9|9,140|140,9|9,157|157,9|9,169|169,9|9,177|177,9|9,192|192,9|9,195|195,9|9,196|196,9|9,216|216,9|9,226|226,9|9,258|258,9|9,263|263,9|9,272|272,9|9,276|276,9|9,308|308,9|9,323|323,9|9,330|330,9|9,351|351,9|9,387|387,9|9,388|388,9|9,393|393,9|9,396|396,9|9,404|404,9|9,473|473,9|9,524|524,9|9,536|536,9|9,541|541,9|9,606|606,9|10,28|28,10|10,38|38,10|10,47|47,10|10,66|66,10|10,74|74,10|10,77|77,10|10,99|99,10|10,114|114,10|10,138|138,10|10,149|149,10|10,150|150,10|10,160|160,10|10,199|199,10|10,219|219,10|10,260|260,10|10,284|284,10|10,310|310,10|10,316|316,10|10,328|328,10|10,332|332,10|10,338|338,10|10,358|358,10|10,381|381,10|10,385|385,10|10,395|395,10|10,413|413,10|10,468|468,10|10,495|495,10|10,537|537,10|10,554|554,10|10,580|580,10|10,590|590,10|10,603|603,10|11,29|29,11|11,69|69,11|11,95|95,11|11,128|128,11|11,152|152,11|11,162|162,11|11,173|173,11|11,184|184,11|11,193|193,11|11,222|222,11|11,240|240,11|11,290|290,11|11,296|296,11|11,301|301,11|11,322|322,11|11,343|343,11|11,378|378,11|11,397|397,11|11,398|398,11|11,400|400,11|11,422|422,11|11,429|429,11|11,442|442,11|11,475|475,11|11,486|486,11|11,519|519,11|11,529|529,11|11,535|535,11|11,553|553,11|11,558|558,11|11,594|594,11|11,595|595,11|11,598|598,11|12,30|30,12|12,93|93,12|12,100|100,12|12,110|110,12|12,111|111,12|12,121|121,12|12,127|127,12|12,191|191,12|12,227|227,12|12,229|229,12|12,248|248,12|12,264|264,12|12,283|283,12|12,288|288,12|12,297|297,12|12,312|312,12|12,313|313,12|12,345|345,12|12,349|349,12|12,370|370,12|12,372|372,12|12,373|373,12|12,390|390,12|12,435|435,12|12,448|448,12|12,450|450,12|12,457|457,12|12,464|464,12|12,513|513,12|12,520|520,12|12,566|566,12|12,600|600,12|12,602|602,12|13,31|31,13|13,50|50,13|13,79|79,13|13,101|101,13|13,106|106,13|13,153|153,13|13,161|161,13|13,168|168,13|13,218|218,13|13,228|228,13|13,256|256,13|13,271|271,13|13,306|306,13|13,325|325,13|13,340|340,13|13,354|354,13|13,368|368,13|13,377|377,13|13,402|402,13|13,409|409,13|13,416|416,13|13,443|443,13|13,446|446,13|13,451|451,13|13,471|471,13|13,491|491,13|13,492|492,13|13,496|496,13|13,555|555,13|13,567|567,13|13,585|585,13|13,589|589,13|13,607|607,13|14,32|32,14|14,42|42,14|14,55|55,14|14,60|60,14|14,68|68,14|14,82|82,14|14,147|147,14|14,180|180,14|14,187|187,14|14,212|212,14|14,214|214,14|14,233|233,14|14,261|261,14|14,293|293,14|14,298|298,14|14,300|300,14|14,314|314,14|14,321|321,14|14,350|350,14|14,386|386,14|14,392|392,14|14,401|401,14|14,452|452,14|14,487|487,14|14,488|488,14|14,505|505,14|14,515|515,14|14,530|530,14|14,551|551,14|14,572|572,14|14,576|576,14|14,592|592,14|14,601|601,14|15,33|33,15|15,123|123,15|15,141|141,15|15,144|144,15|15,159|159,15|15,181|181,15|15,203|203,15|15,220|220,15|15,236|236,15|15,242|242,15|15,254|254,15|15,262|262,15|15,307|307,15|15,315|315,15|15,318|318,15|15,374|374,15|15,376|376,15|15,379|379,15|15,384|384,15|15,415|415,15|15,419|419,15|15,461|461,15|15,465|465,15|15,476|476,15|15,498|498,15|15,503|503,15|15,514|514,15|15,516|516,15|15,533|533,15|15,557|557,15|15,569|569,15|15,577|577,15|15,581|581,15|16,34|34,16|16,83|83,16|16,96|96,16|16,97|97,16|16,117|117,16|16,136|136,16|16,146|146,16|16,155|155,16|16,167|167,16|16,217|217,16|16,231|231,16|16,244|244,16|16,273|273,16|16,294|294,16|16,299|299,16|16,320|320,16|16,329|329,16|16,344|344,16|16,382|382,16|16,414|414,16|16,441|441,16|16,458|458,16|16,474|474,16|16,481|481,16|16,508|508,16|16,512|512,16|16,531|531,16|16,546|546,16|16,548|548,16|16,552|552,16|16,562|562,16|16,596|596,16|17,35|35,17|17,51|51,17|17,102|102,17|17,107|107,17|17,113|113,17|17,122|122,17|17,131|131,17|17,148|148,17|17,156|156,17|17,209|209,17|17,221|221,17|17,224|224,17|17,275|275,17|17,277|277,17|17,279|279,17|17,311|311,17|17,337|337,17|17,355|355,17|17,364|364,17|17,371|371,17|17,394|394,17|17,417|417,17|17,420|420,17|17,432|432,17|17,433|433,17|17,453|453,17|17,456|456,17|17,466|466,17|17,470|470,17|17,504|504,17|17,509|509,17|17,549|549,17|18,36|36,18|18,46|46,18|18,52|52,18|18,58|58,18|18,81|81,18|18,90|90,18|18,142|142,18|18,178|178,18|18,183|183,18|18,194|194,18|18,210|210,18|18,225|225,18|18,230|230,18|18,257|257,18|18,274|274,18|18,304|304,18|18,305|305,18|18,317|317,18|18,331|331,18|18,352|352,18|18,353|353,18|18,362|362,18|18,427|427,18|18,440|440,18|18,463|463,18|18,480|480,18|18,483|483,18|18,493|493,18|18,502|502,18|18,507|507,18|18,559|559,18|18,570|570,18|18,574|574,18|];
nodes = [|1,9,0,0,0,0,1,1|2,9,0,0,0,0,1,2|3,9,0,0,0,0,1,3|4,9,0,0,0,0,1,4|5,9,0,0,0,0,1,5|6,9,0,0,0,0,1,6|7,9,0,0,0,0,1,7|8,9,0,0,0,0,1,8|9,9,0,0,0,0,1,9|10,9,0,0,0,0,1,10|11,9,0,0,0,0,1,11|12,9,0,0,0,0,1,12|13,9,0,0,0,0,1,13|14,9,0,0,0,0,1,14|15,9,0,0,0,0,1,15|16,9,0,0,0,0,1,16|17,9,0,0,0,0,1,17|18,9,0,0,0,0,1,18|19,10,0,0,0,0,1,1|20,10,0,0,0,0,1,2|21,10,0,0,0,0,1,3|22,10,0,0,0,0,1,4|23,10,0,0,0,0,1,5|24,10,0,0,0,0,1,6|25,10,0,0,0,0,1,7|26,10,0,0,0,0,1,8|27,10,0,0,0,0,1,9|28,10,0,0,0,0,1,10|29,10,0,0,0,0,1,11|30,10,0,0,0,0,1,12|31,10,0,0,0,0,1,13|32,10,0,0,0,0,1,14|33,10,0,0,0,0,1,15|34,10,0,0,0,0,1,16|35,10,0,0,0,0,1,17|36,10,0,0,0,0,1,18|37,4,0,0,0,0,1,5|38,1,0,0,0,0,1,10|39,4,0,0,0,0,1,6|40,2,0,0,0,0,1,5|41,2,0,0,0,0,1,4|42,4,0,0,0,0,1,14|43,5,0,0,0,0,1,5|44,4,0,0,0,0,1,2|45,3,0,0,0,0,1,7|46,3,0,0,0,0,1,18|47,5,0,0,0,0,1,10|48,2,0,0,0,0,1,5|49,5,0,0,0,0,1,2|50,4,0,0,0,0,1,13|51,3,0,0,0,0,1,17|52,1,0,0,0,0,1,18|53,5,0,0,0,0,1,3|54,3,0,0,0,0,1,8|55,1,0,0,0,0,1,14|56,4,0,0,0,0,1,8|57,2,0,0,0,0,1,1|58,5,0,0,0,0,1,18|59,3,0,0,0,0,1,7|60,3,0,0,0,0,1,14|61,3,0,0,0,0,1,7|62,1,0,0,0,0,1,2|63,5,0,0,0,0,1,4|64,1,0,0,0,0,1,3|65,2,0,0,0,0,1,5|66,4,0,0,0,0,1,10|67,3,0,0,0,0,1,8|68,5,0,0,0,0,1,14|69,4,0,0,0,0,1,11|70,2,0,0,0,0,1,5|71,1,0,0,0,0,1,2|72,3,0,0,0,0,1,4|73,4,0,0,0,0,1,5|74,4,0,0,0,0,1,10|75,2,0,0,0,0,1,1|76,3,0,0,0,0,1,2|77,3,0,0,0,0,1,10|78,5,0,0,0,0,1,1|79,5,0,0,0,0,1,13|80,5,0,0,0,0,1,1|81,3,0,0,0,0,1,18|82,2,0,0,0,0,1,14|83,2,0,0,0,0,1,16|84,2,0,0,0,0,1,3|85,2,0,0,0,0,1,9|86,3,0,0,0,0,1,5|87,2,0,0,0,0,1,7|88,3,0,0,0,0,1,6|89,2,0,0,0,0,1,8|90,3,0,0,0,0,1,18|91,5,0,0,0,0,1,9|92,3,0,0,0,0,1,2|93,1,0,0,0,0,1,12|94,2,0,0,0,0,1,3|95,5,0,0,0,0,1,11|96,1,0,0,0,0,1,16|97,2,0,0,0,0,1,16|98,2,0,0,0,0,1,5|99,5,0,0,0,0,1,10|100,5,0,0,0,0,1,12|101,4,0,0,0,0,1,13|102,5,0,0,0,0,1,17|103,1,0,0,0,0,1,6|104,1,0,0,0,0,1,3|105,1,0,0,0,0,1,1|106,4,0,0,0,0,1,13|107,5,0,0,0,0,1,17|108,5,0,0,0,0,1,5|109,2,0,0,0,0,1,7|110,2,0,0,0,0,1,12|111,3,0,0,0,0,1,12|112,3,0,0,0,0,1,3|113,3,0,0,0,0,1,17|114,2,0,0,0,0,1,10|115,2,0,0,0,0,1,6|116,3,0,0,0,0,1,6|117,1,0,0,0,0,1,16|118,5,0,0,0,0,1,3|119,1,0,0,0,0,1,5|120,4,0,0,0,0,1,8|121,2,0,0,0,0,1,12|122,3,0,0,0,0,1,17|123,1,0,0,0,0,1,15|124,2,0,0,0,0,1,1|125,4,0,0,0,0,1,3|126,2,0,0,0,0,1,7|127,5,0,0,0,0,1,12|128,2,0,0,0,0,1,11|129,5,0,0,0,0,1,1|130,3,0,0,0,0,1,9|131,1,0,0,0,0,1,17|132,2,0,0,0,0,1,7|133,3,0,0,0,0,1,5|134,1,0,0,0,0,1,8|135,2,0,0,0,0,1,7|136,4,0,0,0,0,1,16|137,4,0,0,0,0,1,4|138,1,0,0,0,0,1,10|139,1,0,0,0,0,1,7|140,2,0,0,0,0,1,9|141,3,0,0,0,0,1,15|142,4,0,0,0,0,1,18|143,5,0,0,0,0,1,5|144,2,0,0,0,0,1,15|145,2,0,0,0,0,1,1|146,4,0,0,0,0,1,16|147,3,0,0,0,0,1,14|148,3,0,0,0,0,1,17|149,3,0,0,0,0,1,10|150,3,0,0,0,0,1,10|151,1,0,0,0,0,1,8|152,4,0,0,0,0,1,11|153,1,0,0,0,0,1,13|154,5,0,0,0,0,1,6|155,4,0,0,0,0,1,16|156,1,0,0,0,0,1,17|157,2,0,0,0,0,1,9|158,4,0,0,0,0,1,7|159,2,0,0,0,0,1,15|160,3,0,0,0,0,1,10|161,1,0,0,0,0,1,13|162,4,0,0,0,0,1,11|163,2,0,0,0,0,1,3|164,2,0,0,0,0,1,5|165,3,0,0,0,0,1,4|166,2,0,0,0,0,1,6|167,2,0,0,0,0,1,16|168,5,0,0,0,0,1,13|169,3,0,0,0,0,1,9|170,5,0,0,0,0,1,8|171,5,0,0,0,0,1,7|172,1,0,0,0,0,1,2|173,2,0,0,0,0,1,11|174,2,0,0,0,0,1,4|175,5,0,0,0,0,1,3|176,2,0,0,0,0,1,4|177,2,0,0,0,0,1,9|178,4,0,0,0,0,1,18|179,2,0,0,0,0,1,5|180,5,0,0,0,0,1,14|181,5,0,0,0,0,1,15|182,5,0,0,0,0,1,7|183,2,0,0,0,0,1,18|184,2,0,0,0,0,1,11|185,2,0,0,0,0,1,2|186,2,0,0,0,0,1,3|187,1,0,0,0,0,1,14|188,2,0,0,0,0,1,8|189,3,0,0,0,0,1,6|190,5,0,0,0,0,1,8|191,4,0,0,0,0,1,12|192,4,0,0,0,0,1,9|193,5,0,0,0,0,1,11|194,1,0,0,0,0,1,18|195,5,0,0,0,0,1,9|196,1,0,0,0,0,1,9|197,2,0,0,0,0,1,8|198,4,0,0,0,0,1,3|199,4,0,0,0,0,1,10|200,4,0,0,0,0,1,8|201,5,0,0,0,0,1,1|202,2,0,0,0,0,1,1|203,1,0,0,0,0,1,15|204,5,0,0,0,0,1,4|205,1,0,0,0,0,1,8|206,4,0,0,0,0,1,5|207,3,0,0,0,0,1,6|208,3,0,0,0,0,1,6|209,2,0,0,0,0,1,17|210,5,0,0,0,0,1,18|211,5,0,0,0,0,1,8|212,1,0,0,0,0,1,14|213,4,0,0,0,0,1,1|214,2,0,0,0,0,1,14|215,2,0,0,0,0,1,6|216,1,0,0,0,0,1,9|217,5,0,0,0,0,1,16|218,4,0,0,0,0,1,13|219,2,0,0,0,0,1,10|220,2,0,0,0,0,1,15|221,5,0,0,0,0,1,17|222,2,0,0,0,0,1,11|223,3,0,0,0,0,1,2|224,5,0,0,0,0,1,17|225,5,0,0,0,0,1,18|226,4,0,0,0,0,1,9|227,5,0,0,0,0,1,12|228,1,0,0,0,0,1,13|229,5,0,0,0,0,1,12|230,2,0,0,0,0,1,18|231,4,0,0,0,0,1,16|232,5,0,0,0,0,1,2|233,3,0,0,0,0,1,14|234,1,0,0,0,0,1,8|235,2,0,0,0,0,1,1|236,3,0,0,0,0,1,15|237,5,0,0,0,0,1,5|238,5,0,0,0,0,1,2|239,1,0,0,0,0,1,3|240,4,0,0,0,0,1,11|241,2,0,0,0,0,1,2|242,2,0,0,0,0,1,15|243,3,0,0,0,0,1,4|244,5,0,0,0,0,1,16|245,1,0,0,0,0,1,3|246,2,0,0,0,0,1,6|247,3,0,0,0,0,1,5|248,4,0,0,0,0,1,12|249,1,0,0,0,0,1,2|250,5,0,0,0,0,1,3|251,2,0,0,0,0,1,2|252,2,0,0,0,0,1,2|253,1,0,0,0,0,1,6|254,4,0,0,0,0,1,15|255,5,0,0,0,0,1,4|256,4,0,0,0,0,1,13|257,5,0,0,0,0,1,18|258,5,0,0,0,0,1,9|259,2,0,0,0,0,1,2|260,1,0,0,0,0,1,10|261,5,0,0,0,0,1,14|262,3,0,0,0,0,1,15|263,2,0,0,0,0,1,9|264,4,0,0,0,0,1,12|265,3,0,0,0,0,1,5|266,1,0,0,0,0,1,5|267,1,0,0,0,0,1,1|268,3,0,0,0,0,1,8|269,1,0,0,0,0,1,7|270,5,0,0,0,0,1,4|271,4,0,0,0,0,1,13|272,4,0,0,0,0,1,9|273,2,0,0,0,0,1,16|274,1,0,0,0,0,1,18|275,3,0,0,0,0,1,17|276,2,0,0,0,0,1,9|277,5,0,0,0,0,1,17|278,4,0,0,0,0,1,3|279,1,0,0,0,0,1,17|280,4,0,0,0,0,1,1|281,4,0,0,0,0,1,5|282,1,0,0,0,0,1,4|283,4,0,0,0,0,1,12|284,3,0,0,0,0,1,10|285,4,0,0,0,0,1,4|286,4,0,0,0,0,1,6|287,5,0,0,0,0,1,1|288,5,0,0,0,0,1,12|289,1,0,0,0,0,1,5|290,5,0,0,0,0,1,11|291,5,0,0,0,0,1,2|292,5,0,0,0,0,1,3|293,1,0,0,0,0,1,14|294,2,0,0,0,0,1,16|295,3,0,0,0,0,1,8|296,1,0,0,0,0,1,11|297,5,0,0,0,0,1,12|298,1,0,0,0,0,1,14|299,4,0,0,0,0,1,16|300,3,0,0,0,0,1,14|301,2,0,0,0,0,1,11|302,4,0,0,0,0,1,5|303,4,0,0,0,0,1,7|304,2,0,0,0,0,1,18|305,1,0,0,0,0,1,18|306,3,0,0,0,0,1,13|307,1,0,0,0,0,1,15|308,2,0,0,0,0,1,9|309,2,0,0,0,0,1,2|310,5,0,0,0,0,1,10|311,2,0,0,0,0,1,17|312,1,0,0,0,0,1,12|313,2,0,0,0,0,1,12|314,2,0,0,0,0,1,14|315,3,0,0,0,0,1,15|316,2,0,0,0,0,1,10|317,4,0,0,0,0,1,18|318,5,0,0,0,0,1,15|319,2,0,0,0,0,1,1|320,1,0,0,0,0,1,16|321,1,0,0,0,0,1,14|322,5,0,0,0,0,1,11|323,5,0,0,0,0,1,9|324,5,0,0,0,0,1,4|325,4,0,0,0,0,1,13|326,5,0,0,0,0,1,5|327,5,0,0,0,0,1,3|328,3,0,0,0,0,1,10|329,4,0,0,0,0,1,16|330,2,0,0,0,0,1,9|331,2,0,0,0,0,1,18|332,3,0,0,0,0,1,10|333,2,0,0,0,0,1,1|334,1,0,0,0,0,1,6|335,5,0,0,0,0,1,2|336,5,0,0,0,0,1,2|337,3,0,0,0,0,1,17|338,4,0,0,0,0,1,10|339,1,0,0,0,0,1,4|340,3,0,0,0,0,1,13|341,3,0,0,0,0,1,8|342,5,0,0,0,0,1,2|343,1,0,0,0,0,1,11|344,1,0,0,0,0,1,16|345,2,0,0,0,0,1,12|346,1,0,0,0,0,1,8|347,5,0,0,0,0,1,6|348,5,0,0,0,0,1,4|349,2,0,0,0,0,1,12|350,4,0,0,0,0,1,14|351,3,0,0,0,0,1,9|352,4,0,0,0,0,1,18|353,3,0,0,0,0,1,18|354,1,0,0,0,0,1,13|355,1,0,0,0,0,1,17|356,4,0,0,0,0,1,7|357,1,0,0,0,0,1,6|358,5,0,0,0,0,1,10|359,1,0,0,0,0,1,2|360,5,0,0,0,0,1,1|361,2,0,0,0,0,1,5|362,4,0,0,0,0,1,18|363,3,0,0,0,0,1,7|364,3,0,0,0,0,1,17|365,3,0,0,0,0,1,4|366,1,0,0,0,0,1,8|367,1,0,0,0,0,1,6|368,4,0,0,0,0,1,13|369,5,0,0,0,0,1,6|370,3,0,0,0,0,1,12|371,2,0,0,0,0,1,17|372,4,0,0,0,0,1,12|373,2,0,0,0,0,1,12|374,1,0,0,0,0,1,15|375,1,0,0,0,0,1,2|376,3,0,0,0,0,1,15|377,1,0,0,0,0,1,13|378,5,0,0,0,0,1,11|379,2,0,0,0,0,1,15|380,1,0,0,0,0,1,3|381,1,0,0,0,0,1,10|382,2,0,0,0,0,1,16|383,1,0,0,0,0,1,3|384,4,0,0,0,0,1,15|385,3,0,0,0,0,1,10|386,5,0,0,0,0,1,14|387,5,0,0,0,0,1,9|388,3,0,0,0,0,1,9|389,1,0,0,0,0,1,6|390,4,0,0,0,0,1,12|391,4,0,0,0,0,1,2|392,4,0,0,0,0,1,14|393,3,0,0,0,0,1,9|394,4,0,0,0,0,1,17|395,3,0,0,0,0,1,10|396,5,0,0,0,0,1,9|397,4,0,0,0,0,1,11|398,2,0,0,0,0,1,11|399,3,0,0,0,0,1,3|400,1,0,0,0,0,1,11|401,3,0,0,0,0,1,14|402,4,0,0,0,0,1,13|403,5,0,0,0,0,1,1|404,2,0,0,0,0,1,9|405,2,0,0,0,0,1,7|406,3,0,0,0,0,1,2|407,1,0,0,0,0,1,7|408,5,0,0,0,0,1,1|409,3,0,0,0,0,1,13|410,1,0,0,0,0,1,6|411,3,0,0,0,0,1,2|412,2,0,0,0,0,1,4|413,3,0,0,0,0,1,10|414,2,0,0,0,0,1,16|415,1,0,0,0,0,1,15|416,1,0,0,0,0,1,13|417,1,0,0,0,0,1,17|418,2,0,0,0,0,1,1|419,1,0,0,0,0,1,15|420,1,0,0,0,0,1,17|421,2,0,0,0,0,1,8|422,4,0,0,0,0,1,11|423,4,0,0,0,0,1,4|424,5,0,0,0,0,1,7|425,1,0,0,0,0,1,1|426,5,0,0,0,0,1,6|427,5,0,0,0,0,1,18|428,5,0,0,0,0,1,3|429,4,0,0,0,0,1,11|430,1,0,0,0,0,1,3|431,3,0,0,0,0,1,6|432,5,0,0,0,0,1,17|433,5,0,0,0,0,1,17|434,1,0,0,0,0,1,7|435,2,0,0,0,0,1,12|436,4,0,0,0,0,1,8|437,3,0,0,0,0,1,7|438,3,0,0,0,0,1,6|439,4,0,0,0,0,1,4|440,5,0,0,0,0,1,18|441,5,0,0,0,0,1,16|442,4,0,0,0,0,1,11|443,3,0,0,0,0,1,13|444,3,0,0,0,0,1,8|445,2,0,0,0,0,1,7|446,4,0,0,0,0,1,13|447,4,0,0,0,0,1,2|448,5,0,0,0,0,1,12|449,5,0,0,0,0,1,7|450,2,0,0,0,0,1,12|451,2,0,0,0,0,1,13|452,3,0,0,0,0,1,14|453,3,0,0,0,0,1,17|454,3,0,0,0,0,1,8|455,2,0,0,0,0,1,3|456,1,0,0,0,0,1,17|457,5,0,0,0,0,1,12|458,4,0,0,0,0,1,16|459,2,0,0,0,0,1,1|460,1,0,0,0,0,1,4|461,2,0,0,0,0,1,15|462,5,0,0,0,0,1,7|463,2,0,0,0,0,1,18|464,5,0,0,0,0,1,12|465,1,0,0,0,0,1,15|466,5,0,0,0,0,1,17|467,1,0,0,0,0,1,4|468,1,0,0,0,0,1,10|469,4,0,0,0,0,1,4|470,5,0,0,0,0,1,17|471,5,0,0,0,0,1,13|472,3,0,0,0,0,1,1|473,4,0,0,0,0,1,9|474,4,0,0,0,0,1,16|475,3,0,0,0,0,1,11|476,5,0,0,0,0,1,15|477,1,0,0,0,0,1,3|478,2,0,0,0,0,1,4|479,3,0,0,0,0,1,6|480,3,0,0,0,0,1,18|481,1,0,0,0,0,1,16|482,1,0,0,0,0,1,8|483,4,0,0,0,0,1,18|484,5,0,0,0,0,1,1|485,3,0,0,0,0,1,8|486,3,0,0,0,0,1,11|487,4,0,0,0,0,1,14|488,2,0,0,0,0,1,14|489,5,0,0,0,0,1,8|490,4,0,0,0,0,1,3|491,2,0,0,0,0,1,13|492,2,0,0,0,0,1,13|493,2,0,0,0,0,1,18|494,4,0,0,0,0,1,2|495,3,0,0,0,0,1,10|496,3,0,0,0,0,1,13|497,5,0,0,0,0,1,4|498,2,0,0,0,0,1,15|499,2,0,0,0,0,1,6|500,3,0,0,0,0,1,4|501,4,0,0,0,0,1,5|502,4,0,0,0,0,1,18|503,2,0,0,0,0,1,15|504,5,0,0,0,0,1,17|505,3,0,0,0,0,1,14|506,4,0,0,0,0,1,6|507,3,0,0,0,0,1,18|508,4,0,0,0,0,1,16|509,1,0,0,0,0,1,17|510,5,0,0,0,0,1,5|511,1,0,0,0,0,1,2|512,3,0,0,0,0,1,16|513,3,0,0,0,0,1,12|514,4,0,0,0,0,1,15|515,3,0,0,0,0,1,14|516,2,0,0,0,0,1,15|517,4,0,0,0,0,1,3|518,3,0,0,0,0,1,7|519,3,0,0,0,0,1,11|520,2,0,0,0,0,1,12|521,2,0,0,0,0,1,1|522,1,0,0,0,0,1,6|523,1,0,0,0,0,1,3|524,2,0,0,0,0,1,9|525,1,0,0,0,0,1,4|526,5,0,0,0,0,1,7|527,1,0,0,0,0,1,6|528,4,0,0,0,0,1,6|529,1,0,0,0,0,1,11|530,4,0,0,0,0,1,14|531,4,0,0,0,0,1,16|532,1,0,0,0,0,1,5|533,2,0,0,0,0,1,15|534,1,0,0,0,0,1,5|535,5,0,0,0,0,1,11|536,5,0,0,0,0,1,9|537,3,0,0,0,0,1,10|538,5,0,0,0,0,1,8|539,5,0,0,0,0,1,5|540,4,0,0,0,0,1,1|541,3,0,0,0,0,1,9|542,2,0,0,0,0,1,1|543,3,0,0,0,0,1,4|544,4,0,0,0,0,1,8|545,2,0,0,0,0,1,8|546,4,0,0,0,0,1,16|547,1,0,0,0,0,1,3|548,2,0,0,0,0,1,16|549,4,0,0,0,0,1,17|550,4,0,0,0,0,1,4|551,5,0,0,0,0,1,14|552,3,0,0,0,0,1,16|553,3,0,0,0,0,1,11|554,1,0,0,0,0,1,10|555,3,0,0,0,0,1,13|556,4,0,0,0,0,1,7|557,4,0,0,0,0,1,15|558,4,0,0,0,0,1,11|559,1,0,0,0,0,1,18|560,1,0,0,0,0,1,1|561,5,0,0,0,0,1,7|562,1,0,0,0,0,1,16|563,4,0,0,0,0,1,2|564,4,0,0,0,0,1,3|565,3,0,0,0,0,1,2|566,3,0,0,0,0,1,12|567,4,0,0,0,0,1,13|568,4,0,0,0,0,1,1|569,3,0,0,0,0,1,15|570,3,0,0,0,0,1,18|571,5,0,0,0,0,1,2|572,2,0,0,0,0,1,14|573,4,0,0,0,0,1,1|574,3,0,0,0,0,1,18|575,4,0,0,0,0,1,7|576,5,0,0,0,0,1,14|577,3,0,0,0,0,1,15|578,2,0,0,0,0,1,3|579,1,0,0,0,0,1,6|580,4,0,0,0,0,1,10|581,4,0,0,0,0,1,15|582,2,0,0,0,0,1,8|583,3,0,0,0,0,1,1|584,3,0,0,0,0,1,4|585,3,0,0,0,0,1,13|586,3,0,0,0,0,1,3|587,2,0,0,0,0,1,4|588,1,0,0,0,0,1,4|589,1,0,0,0,0,1,13|590,5,0,0,0,0,1,10|591,2,0,0,0,0,1,8|592,4,0,0,0,0,1,14|593,4,0,0,0,0,1,7|594,2,0,0,0,0,1,11|595,4,0,0,0,0,1,11|596,4,0,0,0,0,1,16|597,1,0,0,0,0,1,7|598,4,0,0,0,0,1,11|599,3,0,0,0,0,1,7|600,2,0,0,0,0,1,12|601,1,0,0,0,0,1,14|602,4,0,0,0,0,1,12|603,5,0,0,0,0,1,10|604,1,0,0,0,0,1,6|605,2,0,0,0,0,1,5|606,5,0,0,0,0,1,9|607,5,0,0,0,0,1,13|];
